; Benchmark for LTL-sketching problem
(set-logic QF_UF)
(set-info :status unknown)
(declare-fun z_0_0_1 () Bool)
(declare-fun z_1_0_0 () Bool)
(declare-fun z_0_0_0 () Bool)
(declare-fun z_0_0_2 () Bool)
(declare-fun z_1_0_1 () Bool)
(declare-fun z_1_0_2 () Bool)
(declare-fun z_0_1_1 () Bool)
(declare-fun z_1_1_0 () Bool)
(declare-fun z_0_1_0 () Bool)
(declare-fun z_0_1_2 () Bool)
(declare-fun z_1_1_1 () Bool)
(declare-fun z_0_1_3 () Bool)
(declare-fun z_1_1_2 () Bool)
(declare-fun z_0_1_4 () Bool)
(declare-fun z_1_1_3 () Bool)
(declare-fun z_0_1_5 () Bool)
(declare-fun z_1_1_4 () Bool)
(declare-fun z_1_1_5 () Bool)
(declare-fun z_0_2_1 () Bool)
(declare-fun z_1_2_0 () Bool)
(declare-fun z_0_2_0 () Bool)
(declare-fun z_0_2_2 () Bool)
(declare-fun z_1_2_1 () Bool)
(declare-fun z_0_2_3 () Bool)
(declare-fun z_1_2_2 () Bool)
(declare-fun z_1_2_3 () Bool)
(declare-fun z_0_3_1 () Bool)
(declare-fun z_1_3_0 () Bool)
(declare-fun z_0_3_0 () Bool)
(declare-fun z_0_3_2 () Bool)
(declare-fun z_1_3_1 () Bool)
(declare-fun z_1_3_2 () Bool)
(declare-fun z_0_4_1 () Bool)
(declare-fun z_1_4_0 () Bool)
(declare-fun z_0_4_0 () Bool)
(declare-fun z_0_4_2 () Bool)
(declare-fun z_1_4_1 () Bool)
(declare-fun z_0_4_3 () Bool)
(declare-fun z_1_4_2 () Bool)
(declare-fun z_0_4_4 () Bool)
(declare-fun z_1_4_3 () Bool)
(declare-fun z_0_4_5 () Bool)
(declare-fun z_1_4_4 () Bool)
(declare-fun z_1_4_5 () Bool)
(declare-fun z_0_5_1 () Bool)
(declare-fun z_1_5_0 () Bool)
(declare-fun z_0_5_0 () Bool)
(declare-fun z_0_5_2 () Bool)
(declare-fun z_1_5_1 () Bool)
(declare-fun z_0_5_3 () Bool)
(declare-fun z_1_5_2 () Bool)
(declare-fun z_1_5_3 () Bool)
(declare-fun z_0_6_1 () Bool)
(declare-fun z_1_6_0 () Bool)
(declare-fun z_0_6_0 () Bool)
(declare-fun z_0_6_2 () Bool)
(declare-fun z_1_6_1 () Bool)
(declare-fun z_1_6_2 () Bool)
(declare-fun z_0_7_1 () Bool)
(declare-fun z_1_7_0 () Bool)
(declare-fun z_0_7_0 () Bool)
(declare-fun z_0_7_2 () Bool)
(declare-fun z_1_7_1 () Bool)
(declare-fun z_0_7_3 () Bool)
(declare-fun z_1_7_2 () Bool)
(declare-fun z_0_7_4 () Bool)
(declare-fun z_1_7_3 () Bool)
(declare-fun z_0_7_5 () Bool)
(declare-fun z_1_7_4 () Bool)
(declare-fun z_0_7_6 () Bool)
(declare-fun z_1_7_5 () Bool)
(declare-fun z_1_7_6 () Bool)
(declare-fun z_0_8_1 () Bool)
(declare-fun z_1_8_0 () Bool)
(declare-fun z_0_8_0 () Bool)
(declare-fun z_0_8_2 () Bool)
(declare-fun z_1_8_1 () Bool)
(declare-fun z_1_8_2 () Bool)
(declare-fun z_0_9_1 () Bool)
(declare-fun z_1_9_0 () Bool)
(declare-fun z_0_9_0 () Bool)
(declare-fun z_0_9_2 () Bool)
(declare-fun z_1_9_1 () Bool)
(declare-fun z_1_9_2 () Bool)
(declare-fun z_0_10_1 () Bool)
(declare-fun z_1_10_0 () Bool)
(declare-fun z_0_10_0 () Bool)
(declare-fun z_0_10_2 () Bool)
(declare-fun z_1_10_1 () Bool)
(declare-fun z_0_10_3 () Bool)
(declare-fun z_1_10_2 () Bool)
(declare-fun z_0_10_4 () Bool)
(declare-fun z_1_10_3 () Bool)
(declare-fun z_0_10_5 () Bool)
(declare-fun z_1_10_4 () Bool)
(declare-fun z_1_10_5 () Bool)
(declare-fun z_0_11_1 () Bool)
(declare-fun z_1_11_0 () Bool)
(declare-fun z_0_11_0 () Bool)
(declare-fun z_0_11_2 () Bool)
(declare-fun z_1_11_1 () Bool)
(declare-fun z_0_11_3 () Bool)
(declare-fun z_1_11_2 () Bool)
(declare-fun z_0_11_4 () Bool)
(declare-fun z_1_11_3 () Bool)
(declare-fun z_0_11_5 () Bool)
(declare-fun z_1_11_4 () Bool)
(declare-fun z_1_11_5 () Bool)
(declare-fun z_0_12_1 () Bool)
(declare-fun z_1_12_0 () Bool)
(declare-fun z_0_12_0 () Bool)
(declare-fun z_0_12_2 () Bool)
(declare-fun z_1_12_1 () Bool)
(declare-fun z_0_12_3 () Bool)
(declare-fun z_1_12_2 () Bool)
(declare-fun z_0_12_4 () Bool)
(declare-fun z_1_12_3 () Bool)
(declare-fun z_0_12_5 () Bool)
(declare-fun z_1_12_4 () Bool)
(declare-fun z_1_12_5 () Bool)
(declare-fun z_0_13_1 () Bool)
(declare-fun z_1_13_0 () Bool)
(declare-fun z_0_13_0 () Bool)
(declare-fun z_0_13_2 () Bool)
(declare-fun z_1_13_1 () Bool)
(declare-fun z_0_13_3 () Bool)
(declare-fun z_1_13_2 () Bool)
(declare-fun z_0_13_4 () Bool)
(declare-fun z_1_13_3 () Bool)
(declare-fun z_0_13_5 () Bool)
(declare-fun z_1_13_4 () Bool)
(declare-fun z_0_13_6 () Bool)
(declare-fun z_1_13_5 () Bool)
(declare-fun z_0_13_7 () Bool)
(declare-fun z_1_13_6 () Bool)
(declare-fun z_1_13_7 () Bool)
(declare-fun z_0_14_1 () Bool)
(declare-fun z_1_14_0 () Bool)
(declare-fun z_0_14_0 () Bool)
(declare-fun z_0_14_2 () Bool)
(declare-fun z_1_14_1 () Bool)
(declare-fun z_0_14_3 () Bool)
(declare-fun z_1_14_2 () Bool)
(declare-fun z_1_14_3 () Bool)
(declare-fun z_0_15_1 () Bool)
(declare-fun z_1_15_0 () Bool)
(declare-fun z_0_15_0 () Bool)
(declare-fun z_0_15_2 () Bool)
(declare-fun z_1_15_1 () Bool)
(declare-fun z_0_15_3 () Bool)
(declare-fun z_1_15_2 () Bool)
(declare-fun z_0_15_4 () Bool)
(declare-fun z_1_15_3 () Bool)
(declare-fun z_1_15_4 () Bool)
(declare-fun z_0_16_1 () Bool)
(declare-fun z_1_16_0 () Bool)
(declare-fun z_0_16_0 () Bool)
(declare-fun z_0_16_2 () Bool)
(declare-fun z_1_16_1 () Bool)
(declare-fun z_0_16_3 () Bool)
(declare-fun z_1_16_2 () Bool)
(declare-fun z_0_16_4 () Bool)
(declare-fun z_1_16_3 () Bool)
(declare-fun z_1_16_4 () Bool)
(declare-fun z_0_17_1 () Bool)
(declare-fun z_1_17_0 () Bool)
(declare-fun z_0_17_0 () Bool)
(declare-fun z_0_17_2 () Bool)
(declare-fun z_1_17_1 () Bool)
(declare-fun z_0_17_3 () Bool)
(declare-fun z_1_17_2 () Bool)
(declare-fun z_0_17_4 () Bool)
(declare-fun z_1_17_3 () Bool)
(declare-fun z_1_17_4 () Bool)
(declare-fun z_0_18_1 () Bool)
(declare-fun z_1_18_0 () Bool)
(declare-fun z_0_18_0 () Bool)
(declare-fun z_0_18_2 () Bool)
(declare-fun z_1_18_1 () Bool)
(declare-fun z_0_18_3 () Bool)
(declare-fun z_1_18_2 () Bool)
(declare-fun z_1_18_3 () Bool)
(declare-fun z_0_19_1 () Bool)
(declare-fun z_1_19_0 () Bool)
(declare-fun z_0_19_0 () Bool)
(declare-fun z_0_19_2 () Bool)
(declare-fun z_1_19_1 () Bool)
(declare-fun z_0_19_3 () Bool)
(declare-fun z_1_19_2 () Bool)
(declare-fun z_0_19_4 () Bool)
(declare-fun z_1_19_3 () Bool)
(declare-fun z_1_19_4 () Bool)
(declare-fun z_3_0_0 () Bool)
(declare-fun z_2_0_0 () Bool)
(declare-fun z_3_0_1 () Bool)
(declare-fun z_2_0_1 () Bool)
(declare-fun z_3_0_2 () Bool)
(declare-fun z_2_0_2 () Bool)
(declare-fun z_3_1_0 () Bool)
(declare-fun z_2_1_0 () Bool)
(declare-fun z_3_1_1 () Bool)
(declare-fun z_2_1_1 () Bool)
(declare-fun z_3_1_2 () Bool)
(declare-fun z_2_1_2 () Bool)
(declare-fun z_3_1_3 () Bool)
(declare-fun z_2_1_3 () Bool)
(declare-fun z_3_1_4 () Bool)
(declare-fun z_2_1_4 () Bool)
(declare-fun z_3_1_5 () Bool)
(declare-fun z_2_1_5 () Bool)
(declare-fun z_3_2_0 () Bool)
(declare-fun z_2_2_0 () Bool)
(declare-fun z_3_2_1 () Bool)
(declare-fun z_2_2_1 () Bool)
(declare-fun z_3_2_2 () Bool)
(declare-fun z_2_2_2 () Bool)
(declare-fun z_3_2_3 () Bool)
(declare-fun z_2_2_3 () Bool)
(declare-fun z_3_3_0 () Bool)
(declare-fun z_2_3_0 () Bool)
(declare-fun z_3_3_1 () Bool)
(declare-fun z_2_3_1 () Bool)
(declare-fun z_3_3_2 () Bool)
(declare-fun z_2_3_2 () Bool)
(declare-fun z_3_4_0 () Bool)
(declare-fun z_2_4_0 () Bool)
(declare-fun z_3_4_1 () Bool)
(declare-fun z_2_4_1 () Bool)
(declare-fun z_3_4_2 () Bool)
(declare-fun z_2_4_2 () Bool)
(declare-fun z_3_4_3 () Bool)
(declare-fun z_2_4_3 () Bool)
(declare-fun z_3_4_4 () Bool)
(declare-fun z_2_4_4 () Bool)
(declare-fun z_3_4_5 () Bool)
(declare-fun z_2_4_5 () Bool)
(declare-fun z_3_5_0 () Bool)
(declare-fun z_2_5_0 () Bool)
(declare-fun z_3_5_1 () Bool)
(declare-fun z_2_5_1 () Bool)
(declare-fun z_3_5_2 () Bool)
(declare-fun z_2_5_2 () Bool)
(declare-fun z_3_5_3 () Bool)
(declare-fun z_2_5_3 () Bool)
(declare-fun z_3_6_0 () Bool)
(declare-fun z_2_6_0 () Bool)
(declare-fun z_3_6_1 () Bool)
(declare-fun z_2_6_1 () Bool)
(declare-fun z_3_6_2 () Bool)
(declare-fun z_2_6_2 () Bool)
(declare-fun z_3_7_0 () Bool)
(declare-fun z_2_7_0 () Bool)
(declare-fun z_3_7_1 () Bool)
(declare-fun z_2_7_1 () Bool)
(declare-fun z_3_7_2 () Bool)
(declare-fun z_2_7_2 () Bool)
(declare-fun z_3_7_3 () Bool)
(declare-fun z_2_7_3 () Bool)
(declare-fun z_3_7_4 () Bool)
(declare-fun z_2_7_4 () Bool)
(declare-fun z_3_7_5 () Bool)
(declare-fun z_2_7_5 () Bool)
(declare-fun z_3_7_6 () Bool)
(declare-fun z_2_7_6 () Bool)
(declare-fun z_3_8_0 () Bool)
(declare-fun z_2_8_0 () Bool)
(declare-fun z_3_8_1 () Bool)
(declare-fun z_2_8_1 () Bool)
(declare-fun z_3_8_2 () Bool)
(declare-fun z_2_8_2 () Bool)
(declare-fun z_3_9_0 () Bool)
(declare-fun z_2_9_0 () Bool)
(declare-fun z_3_9_1 () Bool)
(declare-fun z_2_9_1 () Bool)
(declare-fun z_3_9_2 () Bool)
(declare-fun z_2_9_2 () Bool)
(declare-fun z_3_10_0 () Bool)
(declare-fun z_2_10_0 () Bool)
(declare-fun z_3_10_1 () Bool)
(declare-fun z_2_10_1 () Bool)
(declare-fun z_3_10_2 () Bool)
(declare-fun z_2_10_2 () Bool)
(declare-fun z_3_10_3 () Bool)
(declare-fun z_2_10_3 () Bool)
(declare-fun z_3_10_4 () Bool)
(declare-fun z_2_10_4 () Bool)
(declare-fun z_3_10_5 () Bool)
(declare-fun z_2_10_5 () Bool)
(declare-fun z_3_11_0 () Bool)
(declare-fun z_2_11_0 () Bool)
(declare-fun z_3_11_1 () Bool)
(declare-fun z_2_11_1 () Bool)
(declare-fun z_3_11_2 () Bool)
(declare-fun z_2_11_2 () Bool)
(declare-fun z_3_11_3 () Bool)
(declare-fun z_2_11_3 () Bool)
(declare-fun z_3_11_4 () Bool)
(declare-fun z_2_11_4 () Bool)
(declare-fun z_3_11_5 () Bool)
(declare-fun z_2_11_5 () Bool)
(declare-fun z_3_12_0 () Bool)
(declare-fun z_2_12_0 () Bool)
(declare-fun z_3_12_1 () Bool)
(declare-fun z_2_12_1 () Bool)
(declare-fun z_3_12_2 () Bool)
(declare-fun z_2_12_2 () Bool)
(declare-fun z_3_12_3 () Bool)
(declare-fun z_2_12_3 () Bool)
(declare-fun z_3_12_4 () Bool)
(declare-fun z_2_12_4 () Bool)
(declare-fun z_3_12_5 () Bool)
(declare-fun z_2_12_5 () Bool)
(declare-fun z_3_13_0 () Bool)
(declare-fun z_2_13_0 () Bool)
(declare-fun z_3_13_1 () Bool)
(declare-fun z_2_13_1 () Bool)
(declare-fun z_3_13_2 () Bool)
(declare-fun z_2_13_2 () Bool)
(declare-fun z_3_13_3 () Bool)
(declare-fun z_2_13_3 () Bool)
(declare-fun z_3_13_4 () Bool)
(declare-fun z_2_13_4 () Bool)
(declare-fun z_3_13_5 () Bool)
(declare-fun z_2_13_5 () Bool)
(declare-fun z_3_13_6 () Bool)
(declare-fun z_2_13_6 () Bool)
(declare-fun z_3_13_7 () Bool)
(declare-fun z_2_13_7 () Bool)
(declare-fun z_3_14_0 () Bool)
(declare-fun z_2_14_0 () Bool)
(declare-fun z_3_14_1 () Bool)
(declare-fun z_2_14_1 () Bool)
(declare-fun z_3_14_2 () Bool)
(declare-fun z_2_14_2 () Bool)
(declare-fun z_3_14_3 () Bool)
(declare-fun z_2_14_3 () Bool)
(declare-fun z_3_15_0 () Bool)
(declare-fun z_2_15_0 () Bool)
(declare-fun z_3_15_1 () Bool)
(declare-fun z_2_15_1 () Bool)
(declare-fun z_3_15_2 () Bool)
(declare-fun z_2_15_2 () Bool)
(declare-fun z_3_15_3 () Bool)
(declare-fun z_2_15_3 () Bool)
(declare-fun z_3_15_4 () Bool)
(declare-fun z_2_15_4 () Bool)
(declare-fun z_3_16_0 () Bool)
(declare-fun z_2_16_0 () Bool)
(declare-fun z_3_16_1 () Bool)
(declare-fun z_2_16_1 () Bool)
(declare-fun z_3_16_2 () Bool)
(declare-fun z_2_16_2 () Bool)
(declare-fun z_3_16_3 () Bool)
(declare-fun z_2_16_3 () Bool)
(declare-fun z_3_16_4 () Bool)
(declare-fun z_2_16_4 () Bool)
(declare-fun z_3_17_0 () Bool)
(declare-fun z_2_17_0 () Bool)
(declare-fun z_3_17_1 () Bool)
(declare-fun z_2_17_1 () Bool)
(declare-fun z_3_17_2 () Bool)
(declare-fun z_2_17_2 () Bool)
(declare-fun z_3_17_3 () Bool)
(declare-fun z_2_17_3 () Bool)
(declare-fun z_3_17_4 () Bool)
(declare-fun z_2_17_4 () Bool)
(declare-fun z_3_18_0 () Bool)
(declare-fun z_2_18_0 () Bool)
(declare-fun z_3_18_1 () Bool)
(declare-fun z_2_18_1 () Bool)
(declare-fun z_3_18_2 () Bool)
(declare-fun z_2_18_2 () Bool)
(declare-fun z_3_18_3 () Bool)
(declare-fun z_2_18_3 () Bool)
(declare-fun z_3_19_0 () Bool)
(declare-fun z_2_19_0 () Bool)
(declare-fun z_3_19_1 () Bool)
(declare-fun z_2_19_1 () Bool)
(declare-fun z_3_19_2 () Bool)
(declare-fun z_2_19_2 () Bool)
(declare-fun z_3_19_3 () Bool)
(declare-fun z_2_19_3 () Bool)
(declare-fun z_3_19_4 () Bool)
(declare-fun z_2_19_4 () Bool)
(assert
 (= z_0_0_0 (and z_1_0_0 z_0_0_1)))
(assert
 (= z_0_0_1 (and z_1_0_1 z_0_0_2)))
(assert
 (= z_0_0_2 (and z_1_0_2)))
(assert
 (= z_0_1_0 (and z_1_1_0 z_0_1_1)))
(assert
 (= z_0_1_1 (and z_1_1_1 z_0_1_2)))
(assert
 (= z_0_1_2 (and z_1_1_2 z_0_1_3)))
(assert
 (= z_0_1_3 (and z_1_1_3 z_0_1_4)))
(assert
 (= z_0_1_4 (and z_1_1_4 z_0_1_5)))
(assert
 (= z_0_1_5 (and z_1_1_4 z_1_1_5)))
(assert
 (= z_0_2_0 (and z_1_2_0 z_0_2_1)))
(assert
 (= z_0_2_1 (and z_1_2_1 z_0_2_2)))
(assert
 (= z_0_2_2 (and z_1_2_2 z_0_2_3)))
(assert
 (= z_0_2_3 (and z_1_2_2 z_1_2_3)))
(assert
 (= z_0_3_0 (and z_1_3_0 z_0_3_1)))
(assert
 (= z_0_3_1 (and z_1_3_1 z_0_3_2)))
(assert
 (= z_0_3_2 (and z_1_3_1 z_1_3_2)))
(assert
 (= z_0_4_0 (and z_1_4_0 z_0_4_1)))
(assert
 (= z_0_4_1 (and z_1_4_1 z_0_4_2)))
(assert
 (= z_0_4_2 (and z_1_4_2 z_0_4_3)))
(assert
 (= z_0_4_3 (and z_1_4_3 z_0_4_4)))
(assert
 (= z_0_4_4 (and z_1_4_4 z_0_4_5)))
(assert
 (= z_0_4_5 (and z_1_4_2 z_1_4_3 z_1_4_4 z_1_4_5)))
(assert
 (= z_0_5_0 (and z_1_5_0 z_0_5_1)))
(assert
 (= z_0_5_1 (and z_1_5_1 z_0_5_2)))
(assert
 (= z_0_5_2 (and z_1_5_2 z_0_5_3)))
(assert
 (= z_0_5_3 (and z_1_5_2 z_1_5_3)))
(assert
 (= z_0_6_0 (and z_1_6_0 z_0_6_1)))
(assert
 (= z_0_6_1 (and z_1_6_1 z_0_6_2)))
(assert
 (= z_0_6_2 (and z_1_6_2)))
(assert
 (= z_0_7_0 (and z_1_7_0 z_0_7_1)))
(assert
 (= z_0_7_1 (and z_1_7_1 z_0_7_2)))
(assert
 (= z_0_7_2 (and z_1_7_2 z_0_7_3)))
(assert
 (= z_0_7_3 (and z_1_7_3 z_0_7_4)))
(assert
 (= z_0_7_4 (and z_1_7_4 z_0_7_5)))
(assert
 (= z_0_7_5 (and z_1_7_5 z_0_7_6)))
(assert
 (= z_0_7_6 (and z_1_7_3 z_1_7_4 z_1_7_5 z_1_7_6)))
(assert
 (= z_0_8_0 (and z_1_8_0 z_0_8_1)))
(assert
 (= z_0_8_1 (and z_1_8_1 z_0_8_2)))
(assert
 (= z_0_8_2 (and z_1_8_1 z_1_8_2)))
(assert
 (= z_0_9_0 (and z_1_9_0 z_0_9_1)))
(assert
 (= z_0_9_1 (and z_1_9_1 z_0_9_2)))
(assert
 (= z_0_9_2 (and z_1_9_2)))
(assert
 (= z_0_10_0 (and z_1_10_0 z_0_10_1)))
(assert
 (= z_0_10_1 (and z_1_10_1 z_0_10_2)))
(assert
 (= z_0_10_2 (and z_1_10_2 z_0_10_3)))
(assert
 (= z_0_10_3 (and z_1_10_3 z_0_10_4)))
(assert
 (= z_0_10_4 (and z_1_10_4 z_0_10_5)))
(assert
 (= z_0_10_5 (and z_1_10_2 z_1_10_3 z_1_10_4 z_1_10_5)))
(assert
 (= z_0_11_0 (and z_1_11_0 z_0_11_1)))
(assert
 (= z_0_11_1 (and z_1_11_1 z_0_11_2)))
(assert
 (= z_0_11_2 (and z_1_11_2 z_0_11_3)))
(assert
 (= z_0_11_3 (and z_1_11_3 z_0_11_4)))
(assert
 (= z_0_11_4 (and z_1_11_4 z_0_11_5)))
(assert
 (= z_0_11_5 (and z_1_11_4 z_1_11_5)))
(assert
 (= z_0_12_0 (and z_1_12_0 z_0_12_1)))
(assert
 (= z_0_12_1 (and z_1_12_1 z_0_12_2)))
(assert
 (= z_0_12_2 (and z_1_12_2 z_0_12_3)))
(assert
 (= z_0_12_3 (and z_1_12_3 z_0_12_4)))
(assert
 (= z_0_12_4 (and z_1_12_4 z_0_12_5)))
(assert
 (= z_0_12_5 (and z_1_12_3 z_1_12_4 z_1_12_5)))
(assert
 (= z_0_13_0 (and z_1_13_0 z_0_13_1)))
(assert
 (= z_0_13_1 (and z_1_13_1 z_0_13_2)))
(assert
 (= z_0_13_2 (and z_1_13_2 z_0_13_3)))
(assert
 (= z_0_13_3 (and z_1_13_3 z_0_13_4)))
(assert
 (= z_0_13_4 (and z_1_13_4 z_0_13_5)))
(assert
 (= z_0_13_5 (and z_1_13_5 z_0_13_6)))
(assert
 (= z_0_13_6 (and z_1_13_6 z_0_13_7)))
(assert
 (= z_0_13_7 (and z_1_13_4 z_1_13_5 z_1_13_6 z_1_13_7)))
(assert
 (= z_0_14_0 (and z_1_14_0 z_0_14_1)))
(assert
 (= z_0_14_1 (and z_1_14_1 z_0_14_2)))
(assert
 (= z_0_14_2 (and z_1_14_2 z_0_14_3)))
(assert
 (= z_0_14_3 (and z_1_14_2 z_1_14_3)))
(assert
 (= z_0_15_0 (and z_1_15_0 z_0_15_1)))
(assert
 (= z_0_15_1 (and z_1_15_1 z_0_15_2)))
(assert
 (= z_0_15_2 (and z_1_15_2 z_0_15_3)))
(assert
 (= z_0_15_3 (and z_1_15_3 z_0_15_4)))
(assert
 (= z_0_15_4 (and z_1_15_2 z_1_15_3 z_1_15_4)))
(assert
 (= z_0_16_0 (and z_1_16_0 z_0_16_1)))
(assert
 (= z_0_16_1 (and z_1_16_1 z_0_16_2)))
(assert
 (= z_0_16_2 (and z_1_16_2 z_0_16_3)))
(assert
 (= z_0_16_3 (and z_1_16_3 z_0_16_4)))
(assert
 (= z_0_16_4 (and z_1_16_3 z_1_16_4)))
(assert
 (= z_0_17_0 (and z_1_17_0 z_0_17_1)))
(assert
 (= z_0_17_1 (and z_1_17_1 z_0_17_2)))
(assert
 (= z_0_17_2 (and z_1_17_2 z_0_17_3)))
(assert
 (= z_0_17_3 (and z_1_17_3 z_0_17_4)))
(assert
 (= z_0_17_4 (and z_1_17_2 z_1_17_3 z_1_17_4)))
(assert
 (= z_0_18_0 (and z_1_18_0 z_0_18_1)))
(assert
 (= z_0_18_1 (and z_1_18_1 z_0_18_2)))
(assert
 (= z_0_18_2 (and z_1_18_2 z_0_18_3)))
(assert
 (= z_0_18_3 (and z_1_18_3)))
(assert
 (= z_0_19_0 (and z_1_19_0 z_0_19_1)))
(assert
 (= z_0_19_1 (and z_1_19_1 z_0_19_2)))
(assert
 (= z_0_19_2 (and z_1_19_2 z_0_19_3)))
(assert
 (= z_0_19_3 (and z_1_19_3 z_0_19_4)))
(assert
 (= z_0_19_4 (and z_1_19_2 z_1_19_3 z_1_19_4)))
(assert
 (= z_1_0_0 (=> z_2_0_0 z_3_0_0)))
(assert
 (= z_1_0_1 (=> z_2_0_1 z_3_0_1)))
(assert
 (= z_1_0_2 (=> z_2_0_2 z_3_0_2)))
(assert
 (= z_1_1_0 (=> z_2_1_0 z_3_1_0)))
(assert
 (= z_1_1_1 (=> z_2_1_1 z_3_1_1)))
(assert
 (= z_1_1_2 (=> z_2_1_2 z_3_1_2)))
(assert
 (= z_1_1_3 (=> z_2_1_3 z_3_1_3)))
(assert
 (= z_1_1_4 (=> z_2_1_4 z_3_1_4)))
(assert
 (= z_1_1_5 (=> z_2_1_5 z_3_1_5)))
(assert
 (= z_1_2_0 (=> z_2_2_0 z_3_2_0)))
(assert
 (= z_1_2_1 (=> z_2_2_1 z_3_2_1)))
(assert
 (= z_1_2_2 (=> z_2_2_2 z_3_2_2)))
(assert
 (= z_1_2_3 (=> z_2_2_3 z_3_2_3)))
(assert
 (= z_1_3_0 (=> z_2_3_0 z_3_3_0)))
(assert
 (= z_1_3_1 (=> z_2_3_1 z_3_3_1)))
(assert
 (= z_1_3_2 (=> z_2_3_2 z_3_3_2)))
(assert
 (= z_1_4_0 (=> z_2_4_0 z_3_4_0)))
(assert
 (= z_1_4_1 (=> z_2_4_1 z_3_4_1)))
(assert
 (= z_1_4_2 (=> z_2_4_2 z_3_4_2)))
(assert
 (= z_1_4_3 (=> z_2_4_3 z_3_4_3)))
(assert
 (= z_1_4_4 (=> z_2_4_4 z_3_4_4)))
(assert
 (= z_1_4_5 (=> z_2_4_5 z_3_4_5)))
(assert
 (= z_1_5_0 (=> z_2_5_0 z_3_5_0)))
(assert
 (= z_1_5_1 (=> z_2_5_1 z_3_5_1)))
(assert
 (= z_1_5_2 (=> z_2_5_2 z_3_5_2)))
(assert
 (= z_1_5_3 (=> z_2_5_3 z_3_5_3)))
(assert
 (= z_1_6_0 (=> z_2_6_0 z_3_6_0)))
(assert
 (= z_1_6_1 (=> z_2_6_1 z_3_6_1)))
(assert
 (= z_1_6_2 (=> z_2_6_2 z_3_6_2)))
(assert
 (= z_1_7_0 (=> z_2_7_0 z_3_7_0)))
(assert
 (= z_1_7_1 (=> z_2_7_1 z_3_7_1)))
(assert
 (= z_1_7_2 (=> z_2_7_2 z_3_7_2)))
(assert
 (= z_1_7_3 (=> z_2_7_3 z_3_7_3)))
(assert
 (= z_1_7_4 (=> z_2_7_4 z_3_7_4)))
(assert
 (= z_1_7_5 (=> z_2_7_5 z_3_7_5)))
(assert
 (= z_1_7_6 (=> z_2_7_6 z_3_7_6)))
(assert
 (= z_1_8_0 (=> z_2_8_0 z_3_8_0)))
(assert
 (= z_1_8_1 (=> z_2_8_1 z_3_8_1)))
(assert
 (= z_1_8_2 (=> z_2_8_2 z_3_8_2)))
(assert
 (= z_1_9_0 (=> z_2_9_0 z_3_9_0)))
(assert
 (= z_1_9_1 (=> z_2_9_1 z_3_9_1)))
(assert
 (= z_1_9_2 (=> z_2_9_2 z_3_9_2)))
(assert
 (= z_1_10_0 (=> z_2_10_0 z_3_10_0)))
(assert
 (= z_1_10_1 (=> z_2_10_1 z_3_10_1)))
(assert
 (= z_1_10_2 (=> z_2_10_2 z_3_10_2)))
(assert
 (= z_1_10_3 (=> z_2_10_3 z_3_10_3)))
(assert
 (= z_1_10_4 (=> z_2_10_4 z_3_10_4)))
(assert
 (= z_1_10_5 (=> z_2_10_5 z_3_10_5)))
(assert
 (= z_1_11_0 (=> z_2_11_0 z_3_11_0)))
(assert
 (= z_1_11_1 (=> z_2_11_1 z_3_11_1)))
(assert
 (= z_1_11_2 (=> z_2_11_2 z_3_11_2)))
(assert
 (= z_1_11_3 (=> z_2_11_3 z_3_11_3)))
(assert
 (= z_1_11_4 (=> z_2_11_4 z_3_11_4)))
(assert
 (= z_1_11_5 (=> z_2_11_5 z_3_11_5)))
(assert
 (= z_1_12_0 (=> z_2_12_0 z_3_12_0)))
(assert
 (= z_1_12_1 (=> z_2_12_1 z_3_12_1)))
(assert
 (= z_1_12_2 (=> z_2_12_2 z_3_12_2)))
(assert
 (= z_1_12_3 (=> z_2_12_3 z_3_12_3)))
(assert
 (= z_1_12_4 (=> z_2_12_4 z_3_12_4)))
(assert
 (= z_1_12_5 (=> z_2_12_5 z_3_12_5)))
(assert
 (= z_1_13_0 (=> z_2_13_0 z_3_13_0)))
(assert
 (= z_1_13_1 (=> z_2_13_1 z_3_13_1)))
(assert
 (= z_1_13_2 (=> z_2_13_2 z_3_13_2)))
(assert
 (= z_1_13_3 (=> z_2_13_3 z_3_13_3)))
(assert
 (= z_1_13_4 (=> z_2_13_4 z_3_13_4)))
(assert
 (= z_1_13_5 (=> z_2_13_5 z_3_13_5)))
(assert
 (= z_1_13_6 (=> z_2_13_6 z_3_13_6)))
(assert
 (= z_1_13_7 (=> z_2_13_7 z_3_13_7)))
(assert
 (= z_1_14_0 (=> z_2_14_0 z_3_14_0)))
(assert
 (= z_1_14_1 (=> z_2_14_1 z_3_14_1)))
(assert
 (= z_1_14_2 (=> z_2_14_2 z_3_14_2)))
(assert
 (= z_1_14_3 (=> z_2_14_3 z_3_14_3)))
(assert
 (= z_1_15_0 (=> z_2_15_0 z_3_15_0)))
(assert
 (= z_1_15_1 (=> z_2_15_1 z_3_15_1)))
(assert
 (= z_1_15_2 (=> z_2_15_2 z_3_15_2)))
(assert
 (= z_1_15_3 (=> z_2_15_3 z_3_15_3)))
(assert
 (= z_1_15_4 (=> z_2_15_4 z_3_15_4)))
(assert
 (= z_1_16_0 (=> z_2_16_0 z_3_16_0)))
(assert
 (= z_1_16_1 (=> z_2_16_1 z_3_16_1)))
(assert
 (= z_1_16_2 (=> z_2_16_2 z_3_16_2)))
(assert
 (= z_1_16_3 (=> z_2_16_3 z_3_16_3)))
(assert
 (= z_1_16_4 (=> z_2_16_4 z_3_16_4)))
(assert
 (= z_1_17_0 (=> z_2_17_0 z_3_17_0)))
(assert
 (= z_1_17_1 (=> z_2_17_1 z_3_17_1)))
(assert
 (= z_1_17_2 (=> z_2_17_2 z_3_17_2)))
(assert
 (= z_1_17_3 (=> z_2_17_3 z_3_17_3)))
(assert
 (= z_1_17_4 (=> z_2_17_4 z_3_17_4)))
(assert
 (= z_1_18_0 (=> z_2_18_0 z_3_18_0)))
(assert
 (= z_1_18_1 (=> z_2_18_1 z_3_18_1)))
(assert
 (= z_1_18_2 (=> z_2_18_2 z_3_18_2)))
(assert
 (= z_1_18_3 (=> z_2_18_3 z_3_18_3)))
(assert
 (= z_1_19_0 (=> z_2_19_0 z_3_19_0)))
(assert
 (= z_1_19_1 (=> z_2_19_1 z_3_19_1)))
(assert
 (= z_1_19_2 (=> z_2_19_2 z_3_19_2)))
(assert
 (= z_1_19_3 (=> z_2_19_3 z_3_19_3)))
(assert
 (= z_1_19_4 (=> z_2_19_4 z_3_19_4)))
(assert
 z_2_0_0)
(assert
 (not z_2_0_1))
(assert
 z_2_0_2)
(assert
 z_2_1_0)
(assert
 (not z_2_1_1))
(assert
 (not z_2_1_2))
(assert
 z_2_1_3)
(assert
 z_2_1_4)
(assert
 (not z_2_1_5))
(assert
 (not z_2_2_0))
(assert
 z_2_2_1)
(assert
 z_2_2_2)
(assert
 (not z_2_2_3))
(assert
 (not z_2_3_0))
(assert
 z_2_3_1)
(assert
 (not z_2_3_2))
(assert
 (not z_2_4_0))
(assert
 z_2_4_1)
(assert
 (not z_2_4_2))
(assert
 (not z_2_4_3))
(assert
 z_2_4_4)
(assert
 (not z_2_4_5))
(assert
 (not z_2_5_0))
(assert
 (not z_2_5_1))
(assert
 z_2_5_2)
(assert
 (not z_2_5_3))
(assert
 z_2_6_0)
(assert
 (not z_2_6_1))
(assert
 z_2_6_2)
(assert
 (not z_2_7_0))
(assert
 (not z_2_7_1))
(assert
 z_2_7_2)
(assert
 (not z_2_7_3))
(assert
 z_2_7_4)
(assert
 (not z_2_7_5))
(assert
 (not z_2_7_6))
(assert
 (not z_2_8_0))
(assert
 (not z_2_8_1))
(assert
 z_2_8_2)
(assert
 (not z_2_9_0))
(assert
 (not z_2_9_1))
(assert
 z_2_9_2)
(assert
 z_2_10_0)
(assert
 z_2_10_1)
(assert
 z_2_10_2)
(assert
 z_2_10_3)
(assert
 z_2_10_4)
(assert
 (not z_2_10_5))
(assert
 z_2_11_0)
(assert
 (not z_2_11_1))
(assert
 z_2_11_2)
(assert
 (not z_2_11_3))
(assert
 (not z_2_11_4))
(assert
 z_2_11_5)
(assert
 (not z_2_12_0))
(assert
 z_2_12_1)
(assert
 z_2_12_2)
(assert
 (not z_2_12_3))
(assert
 (not z_2_12_4))
(assert
 z_2_12_5)
(assert
 (not z_2_13_0))
(assert
 (not z_2_13_1))
(assert
 z_2_13_2)
(assert
 (not z_2_13_3))
(assert
 (not z_2_13_4))
(assert
 z_2_13_5)
(assert
 (not z_2_13_6))
(assert
 z_2_13_7)
(assert
 z_2_14_0)
(assert
 z_2_14_1)
(assert
 z_2_14_2)
(assert
 (not z_2_14_3))
(assert
 (not z_2_15_0))
(assert
 (not z_2_15_1))
(assert
 z_2_15_2)
(assert
 (not z_2_15_3))
(assert
 z_2_15_4)
(assert
 z_2_16_0)
(assert
 z_2_16_1)
(assert
 (not z_2_16_2))
(assert
 z_2_16_3)
(assert
 (not z_2_16_4))
(assert
 (not z_2_17_0))
(assert
 z_2_17_1)
(assert
 z_2_17_2)
(assert
 (not z_2_17_3))
(assert
 (not z_2_17_4))
(assert
 (not z_2_18_0))
(assert
 z_2_18_1)
(assert
 (not z_2_18_2))
(assert
 z_2_18_3)
(assert
 z_2_19_0)
(assert
 (not z_2_19_1))
(assert
 z_2_19_2)
(assert
 z_2_19_3)
(assert
 (not z_2_19_4))
(assert
 (= z_0_0_0 true))
(assert
 (= z_0_1_0 true))
(assert
 (= z_0_2_0 true))
(assert
 (= z_0_3_0 true))
(assert
 (= z_0_4_0 true))
(assert
 (= z_0_5_0 true))
(assert
 (= z_0_6_0 true))
(assert
 (= z_0_7_0 true))
(assert
 (= z_0_8_0 true))
(assert
 (= z_0_9_0 true))
(assert
 (= z_0_10_0 false))
(assert
 (= z_0_11_0 false))
(assert
 (= z_0_12_0 false))
(assert
 (= z_0_13_0 false))
(assert
 (= z_0_14_0 false))
(assert
 (= z_0_15_0 false))
(assert
 (= z_0_16_0 false))
(assert
 (= z_0_17_0 false))
(assert
 (= z_0_18_0 false))
(assert
 (= z_0_19_0 false))
(assert
 (let (($x1113 (= z_3_0_0 z_3_6_0)))
 (and $x1113)))
(assert
 (let (($x1115 (= z_3_0_1 z_3_6_1)))
 (and $x1115)))
(assert
 (let (($x1117 (= z_3_0_2 z_3_6_2)))
 (and $x1117)))
(assert
 (let (($x1119 (= z_3_0_2 z_3_9_2)))
 (and $x1119)))
(assert
 (let (($x1121 (= z_3_0_2 z_3_18_3)))
 (and $x1121)))
(assert
 (let (($x1123 (= z_3_1_2 z_3_2_0)))
 (and $x1123)))
(assert
 (let (($x1125 (= z_3_1_3 z_3_2_1)))
 (and $x1125)))
(assert
 (let (($x1127 (= z_3_1_4 z_3_2_2)))
 (and $x1127)))
(assert
 (let (($x1129 (= z_3_1_5 z_3_2_3)))
 (and $x1129)))
(assert
 (let (($x1131 (= z_3_1_4 z_3_3_1)))
 (and $x1131)))
(assert
 (let (($x1133 (= z_3_1_5 z_3_3_2)))
 (and $x1133)))
(assert
 (let (($x1135 (= z_3_1_4 z_3_5_2)))
 (and $x1135)))
(assert
 (let (($x1137 (= z_3_1_5 z_3_5_3)))
 (and $x1137)))
(assert
 (let (($x1139 (= z_3_1_4 z_3_8_2)))
 (and $x1139)))
(assert
 (let (($x1141 (= z_3_1_5 z_3_8_1)))
 (and $x1141)))
(assert
 (let (($x1143 (= z_3_2_2 z_3_3_1)))
 (and $x1143)))
(assert
 (let (($x1145 (= z_3_2_3 z_3_3_2)))
 (and $x1145)))
(assert
 (let (($x1147 (= z_3_2_2 z_3_5_2)))
 (and $x1147)))
(assert
 (let (($x1149 (= z_3_2_3 z_3_5_3)))
 (and $x1149)))
(assert
 (let (($x1151 (= z_3_2_2 z_3_8_2)))
 (and $x1151)))
(assert
 (let (($x1153 (= z_3_2_3 z_3_8_1)))
 (and $x1153)))
(assert
 (let (($x1155 (= z_3_3_0 z_3_5_1)))
 (and $x1155)))
(assert
 (let (($x1157 (= z_3_3_1 z_3_5_2)))
 (and $x1157)))
(assert
 (let (($x1159 (= z_3_3_2 z_3_5_3)))
 (and $x1159)))
(assert
 (let (($x1161 (= z_3_3_1 z_3_8_2)))
 (and $x1161)))
(assert
 (let (($x1163 (= z_3_3_2 z_3_8_1)))
 (and $x1163)))
(assert
 (let (($x1165 (= z_3_4_2 z_3_7_6)))
 (and $x1165)))
(assert
 (let (($x1167 (= z_3_4_3 z_3_7_3)))
 (and $x1167)))
(assert
 (let (($x1169 (= z_3_4_4 z_3_7_4)))
 (and $x1169)))
(assert
 (let (($x1171 (= z_3_4_5 z_3_7_5)))
 (and $x1171)))
(assert
 (let (($x1173 (= z_3_5_2 z_3_8_2)))
 (and $x1173)))
(assert
 (let (($x1175 (= z_3_5_3 z_3_8_1)))
 (and $x1175)))
(assert
 (let (($x1177 (= z_3_6_2 z_3_9_2)))
 (and $x1177)))
(assert
 (let (($x1179 (= z_3_6_2 z_3_18_3)))
 (and $x1179)))
(assert
 (let (($x1181 (= z_3_9_1 z_3_18_2)))
 (and $x1181)))
(assert
 (let (($x1183 (= z_3_9_2 z_3_18_3)))
 (and $x1183)))
(assert
 (let (($x1185 (= z_3_11_4 z_3_14_3)))
 (and $x1185)))
(assert
 (let (($x1187 (= z_3_11_5 z_3_14_2)))
 (and $x1187)))
(check-sat)

